FLOW,10,5,5
0,43,1,10,2,69,3,72,4,94
1,15,0,73,2,13,4,91,3,51
1,86,0,74,4,62,3,44,2,91
0,41,1,12,2,45,4,80,3,3
1,60,0,97,2,45,4,38,3,43
1,76,0,51,4,72,3,36,2,88
0,61,1,4,3,88,4,12,2,48
1,43,0,98,4,57,3,11,2,33
0,79,1,4,3,85,4,3,2,89
1,21,0,33,2,33,4,36,3,3
